
Gurobi 8.1.1 (linux64) logging started Mon May 13 19:13:22 2019


Gurobi 8.1.1 (linux64) logging started Mon May 13 19:17:23 2019

Academic license - for non-commercial use only
Optimize a model with 6 rows, 13 columns and 18 nonzeros
Variable types: 0 continuous, 13 integer (13 binary)
Coefficient statistics:
  Matrix range     [1e+00, 1e+00]
  Objective range  [0e+00, 0e+00]
  Bounds range     [1e+00, 1e+00]
  RHS range        [1e+00, 1e+00]
Found heuristic solution: objective 0.0000000

Explored 0 nodes (0 simplex iterations) in 0.04 seconds
Thread count was 1 (of 8 available processors)

Solution count 1: 0 

Optimal solution found (tolerance 1.00e-04)
Best objective 0.000000000000e+00, best bound 0.000000000000e+00, gap 0.0000%
